size = 10;
tiles = 15;
expressions = [
    "( ([2 3 4 5 6 7 8 9 10 11 12 13 14 15 16]* 1{1} [2 3 4 5 6 7 8 9 10 11 12 13 14 15 16]{9} [2 3 4 5 6 7 8 9 10 11 12 13 14 15 16] 1{2} [2 3 4 5 6 7 8 9 10 11 12 13 14 15 16]{8} [2 3 4 5 6 7 8 9 10 11 12 13 14 15 16] 1{2} [2 3 4 5 6 7 8 9 10 11 12 13 14 15 16]{8} [2 3 4 5 6 7 8 9 10 11 12 13 14 15 16] 1{3} [2 3 4 5 6 7 8 9 10 11 12 13 14 15 16]{7} [2 3 4 5 6 7 8 9 10 11 12 13 14 15 16] 1{2} [2 3 4 5 6 7 8 9 10 11 12 13 14 15 16]{8} [2 3 4 5 6 7 8 9 10 11 12 13 14 15 16] 1{2} [2 3 4 5 6 7 8 9 10 11 12 13 14 15 16]{8} [2 3 4 5 6 7 8 9 10 11 12 13 14 15 16] [2 3 4 5 6 7 8 9 10 11 12 13 14 15 16]{1} 1{1}  [2 3 4 5 6 7 8 9 10 11 12 13 14 15 16]*) | ([2 3 4 5 6 7 8 9 10 11 12 13 14 15 16]* 1{6} [2 3 4 5 6 7 8 9 10 11 12 13 14 15 16]{2} [2 3 4 5 6 7 8 9 10 11 12 13 14 15 16] [2 3 4 5 6 7 8 9 10 11 12 13 14 15 16]{1} 1{6} [2 3 4 5 6 7 8 9 10 11 12 13 14 15 16]{3} [2 3 4 5 6 7 8 9 10 11 12 13 14 15 16] [2 3 4 5 6 7 8 9 10 11 12 13 14 15 16]{4} 1{1}  [2 3 4 5 6 7 8 9 10 11 12 13 14 15 16]*) | ([2 3 4 5 6 7 8 9 10 11 12 13 14 15 16]* 1{1} [2 3 4 5 6 7 8 9 10 11 12 13 14 15 16]{1} [2 3 4 5 6 7 8 9 10 11 12 13 14 15 16] [2 3 4 5 6 7 8 9 10 11 12 13 14 15 16]{8} 1{2} [2 3 4 5 6 7 8 9 10 11 12 13 14 15 16] [2 3 4 5 6 7 8 9 10 11 12 13 14 15 16]{8} 1{2} [2 3 4 5 6 7 8 9 10 11 12 13 14 15 16] [2 3 4 5 6 7 8 9 10 11 12 13 14 15 16]{7} 1{3} [2 3 4 5 6 7 8 9 10 11 12 13 14 15 16] [2 3 4 5 6 7 8 9 10 11 12 13 14 15 16]{8} 1{2} [2 3 4 5 6 7 8 9 10 11 12 13 14 15 16] [2 3 4 5 6 7 8 9 10 11 12 13 14 15 16]{8} 1{2} [2 3 4 5 6 7 8 9 10 11 12 13 14 15 16] [2 3 4 5 6 7 8 9 10 11 12 13 14 15 16]{9} 1{1}  [2 3 4 5 6 7 8 9 10 11 12 13 14 15 16]*) | ([2 3 4 5 6 7 8 9 10 11 12 13 14 15 16]* 1{1} [2 3 4 5 6 7 8 9 10 11 12 13 14 15 16]{4} [2 3 4 5 6 7 8 9 10 11 12 13 14 15 16] [2 3 4 5 6 7 8 9 10 11 12 13 14 15 16]{3} 1{6} [2 3 4 5 6 7 8 9 10 11 12 13 14 15 16]{1} [2 3 4 5 6 7 8 9 10 11 12 13 14 15 16] [2 3 4 5 6 7 8 9 10 11 12 13 14 15 16]{2} 1{6}  [2 3 4 5 6 7 8 9 10 11 12 13 14 15 16]*) | ([2 3 4 5 6 7 8 9 10 11 12 13 14 15 16]* 1{1} [2 3 4 5 6 7 8 9 10 11 12 13 14 15 16] [2 3 4 5 6 7 8 9 10 11 12 13 14 15 16]{8} 1{2} [2 3 4 5 6 7 8 9 10 11 12 13 14 15 16] [2 3 4 5 6 7 8 9 10 11 12 13 14 15 16]{8} 1{2} [2 3 4 5 6 7 8 9 10 11 12 13 14 15 16] [2 3 4 5 6 7 8 9 10 11 12 13 14 15 16]{7} 1{3} [2 3 4 5 6 7 8 9 10 11 12 13 14 15 16] [2 3 4 5 6 7 8 9 10 11 12 13 14 15 16]{8} 1{2} [2 3 4 5 6 7 8 9 10 11 12 13 14 15 16] [2 3 4 5 6 7 8 9 10 11 12 13 14 15 16]{8} 1{2} [2 3 4 5 6 7 8 9 10 11 12 13 14 15 16] [2 3 4 5 6 7 8 9 10 11 12 13 14 15 16]{8} 1{1}  [2 3 4 5 6 7 8 9 10 11 12 13 14 15 16]*) | ([2 3 4 5 6 7 8 9 10 11 12 13 14 15 16]* 1{6} [2 3 4 5 6 7 8 9 10 11 12 13 14 15 16]{2} [2 3 4 5 6 7 8 9 10 11 12 13 14 15 16] [2 3 4 5 6 7 8 9 10 11 12 13 14 15 16]{3} 1{6} [2 3 4 5 6 7 8 9 10 11 12 13 14 15 16]{1} [2 3 4 5 6 7 8 9 10 11 12 13 14 15 16] [2 3 4 5 6 7 8 9 10 11 12 13 14 15 16]{5} 1{1}  [2 3 4 5 6 7 8 9 10 11 12 13 14 15 16]*) | ([2 3 4 5 6 7 8 9 10 11 12 13 14 15 16]* 1{1} [2 3 4 5 6 7 8 9 10 11 12 13 14 15 16]{8} [2 3 4 5 6 7 8 9 10 11 12 13 14 15 16] 1{2} [2 3 4 5 6 7 8 9 10 11 12 13 14 15 16]{8} [2 3 4 5 6 7 8 9 10 11 12 13 14 15 16] 1{2} [2 3 4 5 6 7 8 9 10 11 12 13 14 15 16]{8} [2 3 4 5 6 7 8 9 10 11 12 13 14 15 16] 1{3} [2 3 4 5 6 7 8 9 10 11 12 13 14 15 16]{7} [2 3 4 5 6 7 8 9 10 11 12 13 14 15 16] 1{2} [2 3 4 5 6 7 8 9 10 11 12 13 14 15 16]{8} [2 3 4 5 6 7 8 9 10 11 12 13 14 15 16] 1{2} [2 3 4 5 6 7 8 9 10 11 12 13 14 15 16]{8} [2 3 4 5 6 7 8 9 10 11 12 13 14 15 16] 1{1}  [2 3 4 5 6 7 8 9 10 11 12 13 14 15 16]*) | ([2 3 4 5 6 7 8 9 10 11 12 13 14 15 16]* 1{1} [2 3 4 5 6 7 8 9 10 11 12 13 14 15 16]{5} [2 3 4 5 6 7 8 9 10 11 12 13 14 15 16] [2 3 4 5 6 7 8 9 10 11 12 13 14 15 16]{1} 1{6} [2 3 4 5 6 7 8 9 10 11 12 13 14 15 16]{3} [2 3 4 5 6 7 8 9 10 11 12 13 14 15 16] [2 3 4 5 6 7 8 9 10 11 12 13 14 15 16]{2} 1{6}  [2 3 4 5 6 7 8 9 10 11 12 13 14 15 16]*) )",
    "( ([1 3 4 5 6 7 8 9 10 11 12 13 14 15 16]* 2{1} [1 3 4 5 6 7 8 9 10 11 12 13 14 15 16]{9} [1 3 4 5 6 7 8 9 10 11 12 13 14 15 16] 2{1}  [1 3 4 5 6 7 8 9 10 11 12 13 14 15 16]*) | ([1 3 4 5 6 7 8 9 10 11 12 13 14 15 16]* 2{2}  [1 3 4 5 6 7 8 9 10 11 12 13 14 15 16]*) | ([1 3 4 5 6 7 8 9 10 11 12 13 14 15 16]* 2{1} [1 3 4 5 6 7 8 9 10 11 12 13 14 15 16] [1 3 4 5 6 7 8 9 10 11 12 13 14 15 16]{9} 2{1}  [1 3 4 5 6 7 8 9 10 11 12 13 14 15 16]*) | ([1 3 4 5 6 7 8 9 10 11 12 13 14 15 16]* 2{2}  [1 3 4 5 6 7 8 9 10 11 12 13 14 15 16]*) | ([1 3 4 5 6 7 8 9 10 11 12 13 14 15 16]* 2{1} [1 3 4 5 6 7 8 9 10 11 12 13 14 15 16] [1 3 4 5 6 7 8 9 10 11 12 13 14 15 16]{9} 2{1}  [1 3 4 5 6 7 8 9 10 11 12 13 14 15 16]*) | ([1 3 4 5 6 7 8 9 10 11 12 13 14 15 16]* 2{2}  [1 3 4 5 6 7 8 9 10 11 12 13 14 15 16]*) | ([1 3 4 5 6 7 8 9 10 11 12 13 14 15 16]* 2{1} [1 3 4 5 6 7 8 9 10 11 12 13 14 15 16]{9} [1 3 4 5 6 7 8 9 10 11 12 13 14 15 16] 2{1}  [1 3 4 5 6 7 8 9 10 11 12 13 14 15 16]*) | ([1 3 4 5 6 7 8 9 10 11 12 13 14 15 16]* 2{2}  [1 3 4 5 6 7 8 9 10 11 12 13 14 15 16]*) )",
    "( ([1 2 4 5 6 7 8 9 10 11 12 13 14 15 16]* 3{1} [1 2 4 5 6 7 8 9 10 11 12 13 14 15 16]{2} [1 2 4 5 6 7 8 9 10 11 12 13 14 15 16] [1 2 4 5 6 7 8 9 10 11 12 13 14 15 16]{7} 3{1} [1 2 4 5 6 7 8 9 10 11 12 13 14 15 16]{2} [1 2 4 5 6 7 8 9 10 11 12 13 14 15 16] [1 2 4 5 6 7 8 9 10 11 12 13 14 15 16]{7} 3{2} [1 2 4 5 6 7 8 9 10 11 12 13 14 15 16]{1} [1 2 4 5 6 7 8 9 10 11 12 13 14 15 16] [1 2 4 5 6 7 8 9 10 11 12 13 14 15 16]{7} 3{2} [1 2 4 5 6 7 8 9 10 11 12 13 14 15 16]{1} [1 2 4 5 6 7 8 9 10 11 12 13 14 15 16] [1 2 4 5 6 7 8 9 10 11 12 13 14 15 16]{7} 3{2}  [1 2 4 5 6 7 8 9 10 11 12 13 14 15 16]*) | ([1 2 4 5 6 7 8 9 10 11 12 13 14 15 16]* 3{5} [1 2 4 5 6 7 8 9 10 11 12 13 14 15 16]{1} [1 2 4 5 6 7 8 9 10 11 12 13 14 15 16] [1 2 4 5 6 7 8 9 10 11 12 13 14 15 16]{4} 3{3}  [1 2 4 5 6 7 8 9 10 11 12 13 14 15 16]*) | ([1 2 4 5 6 7 8 9 10 11 12 13 14 15 16]* 3{2} [1 2 4 5 6 7 8 9 10 11 12 13 14 15 16]{7} [1 2 4 5 6 7 8 9 10 11 12 13 14 15 16] [1 2 4 5 6 7 8 9 10 11 12 13 14 15 16]{1} 3{2} [1 2 4 5 6 7 8 9 10 11 12 13 14 15 16]{7} [1 2 4 5 6 7 8 9 10 11 12 13 14 15 16] [1 2 4 5 6 7 8 9 10 11 12 13 14 15 16]{1} 3{2} [1 2 4 5 6 7 8 9 10 11 12 13 14 15 16]{7} [1 2 4 5 6 7 8 9 10 11 12 13 14 15 16] [1 2 4 5 6 7 8 9 10 11 12 13 14 15 16]{2} 3{1} [1 2 4 5 6 7 8 9 10 11 12 13 14 15 16]{7} [1 2 4 5 6 7 8 9 10 11 12 13 14 15 16] [1 2 4 5 6 7 8 9 10 11 12 13 14 15 16]{2} 3{1}  [1 2 4 5 6 7 8 9 10 11 12 13 14 15 16]*) | ([1 2 4 5 6 7 8 9 10 11 12 13 14 15 16]* 3{3} [1 2 4 5 6 7 8 9 10 11 12 13 14 15 16]{4} [1 2 4 5 6 7 8 9 10 11 12 13 14 15 16] [1 2 4 5 6 7 8 9 10 11 12 13 14 15 16]{1} 3{5}  [1 2 4 5 6 7 8 9 10 11 12 13 14 15 16]*) | ([1 2 4 5 6 7 8 9 10 11 12 13 14 15 16]* 3{1} [1 2 4 5 6 7 8 9 10 11 12 13 14 15 16]{7} [1 2 4 5 6 7 8 9 10 11 12 13 14 15 16] [1 2 4 5 6 7 8 9 10 11 12 13 14 15 16]{2} 3{1} [1 2 4 5 6 7 8 9 10 11 12 13 14 15 16]{7} [1 2 4 5 6 7 8 9 10 11 12 13 14 15 16] [1 2 4 5 6 7 8 9 10 11 12 13 14 15 16]{1} 3{2} [1 2 4 5 6 7 8 9 10 11 12 13 14 15 16]{7} [1 2 4 5 6 7 8 9 10 11 12 13 14 15 16] [1 2 4 5 6 7 8 9 10 11 12 13 14 15 16]{1} 3{2} [1 2 4 5 6 7 8 9 10 11 12 13 14 15 16]{7} [1 2 4 5 6 7 8 9 10 11 12 13 14 15 16] [1 2 4 5 6 7 8 9 10 11 12 13 14 15 16]{1} 3{2}  [1 2 4 5 6 7 8 9 10 11 12 13 14 15 16]*) | ([1 2 4 5 6 7 8 9 10 11 12 13 14 15 16]* 3{5} [1 2 4 5 6 7 8 9 10 11 12 13 14 15 16]{4} [1 2 4 5 6 7 8 9 10 11 12 13 14 15 16] [1 2 4 5 6 7 8 9 10 11 12 13 14 15 16]{3} 3{3}  [1 2 4 5 6 7 8 9 10 11 12 13 14 15 16]*) | ([1 2 4 5 6 7 8 9 10 11 12 13 14 15 16]* 3{2} [1 2 4 5 6 7 8 9 10 11 12 13 14 15 16]{1} [1 2 4 5 6 7 8 9 10 11 12 13 14 15 16] [1 2 4 5 6 7 8 9 10 11 12 13 14 15 16]{7} 3{2} [1 2 4 5 6 7 8 9 10 11 12 13 14 15 16]{1} [1 2 4 5 6 7 8 9 10 11 12 13 14 15 16] [1 2 4 5 6 7 8 9 10 11 12 13 14 15 16]{7} 3{2} [1 2 4 5 6 7 8 9 10 11 12 13 14 15 16]{1} [1 2 4 5 6 7 8 9 10 11 12 13 14 15 16] [1 2 4 5 6 7 8 9 10 11 12 13 14 15 16]{7} 3{1} [1 2 4 5 6 7 8 9 10 11 12 13 14 15 16]{2} [1 2 4 5 6 7 8 9 10 11 12 13 14 15 16] [1 2 4 5 6 7 8 9 10 11 12 13 14 15 16]{7} 3{1}  [1 2 4 5 6 7 8 9 10 11 12 13 14 15 16]*) | ([1 2 4 5 6 7 8 9 10 11 12 13 14 15 16]* 3{3} [1 2 4 5 6 7 8 9 10 11 12 13 14 15 16]{3} [1 2 4 5 6 7 8 9 10 11 12 13 14 15 16] [1 2 4 5 6 7 8 9 10 11 12 13 14 15 16]{4} 3{5}  [1 2 4 5 6 7 8 9 10 11 12 13 14 15 16]*) )",
    "( ([1 2 3 5 6 7 8 9 10 11 12 13 14 15 16]* 4{1}  [1 2 3 5 6 7 8 9 10 11 12 13 14 15 16]*) | ([1 2 3 5 6 7 8 9 10 11 12 13 14 15 16]* 4{1}  [1 2 3 5 6 7 8 9 10 11 12 13 14 15 16]*) | ([1 2 3 5 6 7 8 9 10 11 12 13 14 15 16]* 4{1}  [1 2 3 5 6 7 8 9 10 11 12 13 14 15 16]*) | ([1 2 3 5 6 7 8 9 10 11 12 13 14 15 16]* 4{1}  [1 2 3 5 6 7 8 9 10 11 12 13 14 15 16]*) | ([1 2 3 5 6 7 8 9 10 11 12 13 14 15 16]* 4{1}  [1 2 3 5 6 7 8 9 10 11 12 13 14 15 16]*) | ([1 2 3 5 6 7 8 9 10 11 12 13 14 15 16]* 4{1}  [1 2 3 5 6 7 8 9 10 11 12 13 14 15 16]*) | ([1 2 3 5 6 7 8 9 10 11 12 13 14 15 16]* 4{1}  [1 2 3 5 6 7 8 9 10 11 12 13 14 15 16]*) | ([1 2 3 5 6 7 8 9 10 11 12 13 14 15 16]* 4{1}  [1 2 3 5 6 7 8 9 10 11 12 13 14 15 16]*) )",
    "( ([1 2 3 4 6 7 8 9 10 11 12 13 14 15 16]* 5{3} [1 2 3 4 6 7 8 9 10 11 12 13 14 15 16]{3} [1 2 3 4 6 7 8 9 10 11 12 13 14 15 16] [1 2 3 4 6 7 8 9 10 11 12 13 14 15 16]{4} 5{3} [1 2 3 4 6 7 8 9 10 11 12 13 14 15 16]{3} [1 2 3 4 6 7 8 9 10 11 12 13 14 15 16] [1 2 3 4 6 7 8 9 10 11 12 13 14 15 16]{4} 5{4} [1 2 3 4 6 7 8 9 10 11 12 13 14 15 16]{2} [1 2 3 4 6 7 8 9 10 11 12 13 14 15 16] [1 2 3 4 6 7 8 9 10 11 12 13 14 15 16]{4} 5{2}  [1 2 3 4 6 7 8 9 10 11 12 13 14 15 16]*) | ([1 2 3 4 6 7 8 9 10 11 12 13 14 15 16]* 5{4} [1 2 3 4 6 7 8 9 10 11 12 13 14 15 16]{5} [1 2 3 4 6 7 8 9 10 11 12 13 14 15 16] [1 2 3 4 6 7 8 9 10 11 12 13 14 15 16]{1} 5{4} [1 2 3 4 6 7 8 9 10 11 12 13 14 15 16]{5} [1 2 3 4 6 7 8 9 10 11 12 13 14 15 16] [1 2 3 4 6 7 8 9 10 11 12 13 14 15 16]{2} 5{3} [1 2 3 4 6 7 8 9 10 11 12 13 14 15 16]{5} [1 2 3 4 6 7 8 9 10 11 12 13 14 15 16] [1 2 3 4 6 7 8 9 10 11 12 13 14 15 16]{2} 5{1}  [1 2 3 4 6 7 8 9 10 11 12 13 14 15 16]*) | ([1 2 3 4 6 7 8 9 10 11 12 13 14 15 16]* 5{2} [1 2 3 4 6 7 8 9 10 11 12 13 14 15 16]{4} [1 2 3 4 6 7 8 9 10 11 12 13 14 15 16] [1 2 3 4 6 7 8 9 10 11 12 13 14 15 16]{2} 5{4} [1 2 3 4 6 7 8 9 10 11 12 13 14 15 16]{4} [1 2 3 4 6 7 8 9 10 11 12 13 14 15 16] [1 2 3 4 6 7 8 9 10 11 12 13 14 15 16]{3} 5{3} [1 2 3 4 6 7 8 9 10 11 12 13 14 15 16]{4} [1 2 3 4 6 7 8 9 10 11 12 13 14 15 16] [1 2 3 4 6 7 8 9 10 11 12 13 14 15 16]{3} 5{3}  [1 2 3 4 6 7 8 9 10 11 12 13 14 15 16]*) | ([1 2 3 4 6 7 8 9 10 11 12 13 14 15 16]* 5{1} [1 2 3 4 6 7 8 9 10 11 12 13 14 15 16]{2} [1 2 3 4 6 7 8 9 10 11 12 13 14 15 16] [1 2 3 4 6 7 8 9 10 11 12 13 14 15 16]{5} 5{3} [1 2 3 4 6 7 8 9 10 11 12 13 14 15 16]{2} [1 2 3 4 6 7 8 9 10 11 12 13 14 15 16] [1 2 3 4 6 7 8 9 10 11 12 13 14 15 16]{5} 5{4} [1 2 3 4 6 7 8 9 10 11 12 13 14 15 16]{1} [1 2 3 4 6 7 8 9 10 11 12 13 14 15 16] [1 2 3 4 6 7 8 9 10 11 12 13 14 15 16]{5} 5{4}  [1 2 3 4 6 7 8 9 10 11 12 13 14 15 16]*) | ([1 2 3 4 6 7 8 9 10 11 12 13 14 15 16]* 5{3} [1 2 3 4 6 7 8 9 10 11 12 13 14 15 16]{4} [1 2 3 4 6 7 8 9 10 11 12 13 14 15 16] [1 2 3 4 6 7 8 9 10 11 12 13 14 15 16]{3} 5{3} [1 2 3 4 6 7 8 9 10 11 12 13 14 15 16]{4} [1 2 3 4 6 7 8 9 10 11 12 13 14 15 16] [1 2 3 4 6 7 8 9 10 11 12 13 14 15 16]{2} 5{4} [1 2 3 4 6 7 8 9 10 11 12 13 14 15 16]{4} [1 2 3 4 6 7 8 9 10 11 12 13 14 15 16] [1 2 3 4 6 7 8 9 10 11 12 13 14 15 16]{4} 5{2}  [1 2 3 4 6 7 8 9 10 11 12 13 14 15 16]*) | ([1 2 3 4 6 7 8 9 10 11 12 13 14 15 16]* 5{4} [1 2 3 4 6 7 8 9 10 11 12 13 14 15 16]{1} [1 2 3 4 6 7 8 9 10 11 12 13 14 15 16] [1 2 3 4 6 7 8 9 10 11 12 13 14 15 16]{5} 5{4} [1 2 3 4 6 7 8 9 10 11 12 13 14 15 16]{1} [1 2 3 4 6 7 8 9 10 11 12 13 14 15 16] [1 2 3 4 6 7 8 9 10 11 12 13 14 15 16]{5} 5{3} [1 2 3 4 6 7 8 9 10 11 12 13 14 15 16]{2} [1 2 3 4 6 7 8 9 10 11 12 13 14 15 16] [1 2 3 4 6 7 8 9 10 11 12 13 14 15 16]{7} 5{1}  [1 2 3 4 6 7 8 9 10 11 12 13 14 15 16]*) | ([1 2 3 4 6 7 8 9 10 11 12 13 14 15 16]* 5{2} [1 2 3 4 6 7 8 9 10 11 12 13 14 15 16]{4} [1 2 3 4 6 7 8 9 10 11 12 13 14 15 16] [1 2 3 4 6 7 8 9 10 11 12 13 14 15 16]{4} 5{4} [1 2 3 4 6 7 8 9 10 11 12 13 14 15 16]{2} [1 2 3 4 6 7 8 9 10 11 12 13 14 15 16] [1 2 3 4 6 7 8 9 10 11 12 13 14 15 16]{4} 5{3} [1 2 3 4 6 7 8 9 10 11 12 13 14 15 16]{3} [1 2 3 4 6 7 8 9 10 11 12 13 14 15 16] [1 2 3 4 6 7 8 9 10 11 12 13 14 15 16]{4} 5{3}  [1 2 3 4 6 7 8 9 10 11 12 13 14 15 16]*) | ([1 2 3 4 6 7 8 9 10 11 12 13 14 15 16]* 5{1} [1 2 3 4 6 7 8 9 10 11 12 13 14 15 16]{7} [1 2 3 4 6 7 8 9 10 11 12 13 14 15 16] [1 2 3 4 6 7 8 9 10 11 12 13 14 15 16]{2} 5{3} [1 2 3 4 6 7 8 9 10 11 12 13 14 15 16]{5} [1 2 3 4 6 7 8 9 10 11 12 13 14 15 16] [1 2 3 4 6 7 8 9 10 11 12 13 14 15 16]{1} 5{4} [1 2 3 4 6 7 8 9 10 11 12 13 14 15 16]{5} [1 2 3 4 6 7 8 9 10 11 12 13 14 15 16] [1 2 3 4 6 7 8 9 10 11 12 13 14 15 16]{1} 5{4}  [1 2 3 4 6 7 8 9 10 11 12 13 14 15 16]*) )",
    "( ([1 2 3 4 5 7 8 9 10 11 12 13 14 15 16]* 6{8} [1 2 3 4 5 7 8 9 10 11 12 13 14 15 16]{2} [1 2 3 4 5 7 8 9 10 11 12 13 14 15 16] [1 2 3 4 5 7 8 9 10 11 12 13 14 15 16]{3} 6{4} [1 2 3 4 5 7 8 9 10 11 12 13 14 15 16]{3} [1 2 3 4 5 7 8 9 10 11 12 13 14 15 16] [1 2 3 4 5 7 8 9 10 11 12 13 14 15 16]{3} 6{1}  [1 2 3 4 5 7 8 9 10 11 12 13 14 15 16]*) | ([1 2 3 4 5 7 8 9 10 11 12 13 14 15 16]* 6{1} [1 2 3 4 5 7 8 9 10 11 12 13 14 15 16] [1 2 3 4 5 7 8 9 10 11 12 13 14 15 16]{9} 6{1} [1 2 3 4 5 7 8 9 10 11 12 13 14 15 16] [1 2 3 4 5 7 8 9 10 11 12 13 14 15 16]{9} 6{1} [1 2 3 4 5 7 8 9 10 11 12 13 14 15 16] [1 2 3 4 5 7 8 9 10 11 12 13 14 15 16]{7} 6{3} [1 2 3 4 5 7 8 9 10 11 12 13 14 15 16] [1 2 3 4 5 7 8 9 10 11 12 13 14 15 16]{8} 6{2} [1 2 3 4 5 7 8 9 10 11 12 13 14 15 16] [1 2 3 4 5 7 8 9 10 11 12 13 14 15 16]{8} 6{2} [1 2 3 4 5 7 8 9 10 11 12 13 14 15 16] [1 2 3 4 5 7 8 9 10 11 12 13 14 15 16]{8} 6{2} [1 2 3 4 5 7 8 9 10 11 12 13 14 15 16] [1 2 3 4 5 7 8 9 10 11 12 13 14 15 16]{9} 6{1}  [1 2 3 4 5 7 8 9 10 11 12 13 14 15 16]*) | ([1 2 3 4 5 7 8 9 10 11 12 13 14 15 16]* 6{1} [1 2 3 4 5 7 8 9 10 11 12 13 14 15 16]{3} [1 2 3 4 5 7 8 9 10 11 12 13 14 15 16] [1 2 3 4 5 7 8 9 10 11 12 13 14 15 16]{3} 6{4} [1 2 3 4 5 7 8 9 10 11 12 13 14 15 16]{3} [1 2 3 4 5 7 8 9 10 11 12 13 14 15 16] [1 2 3 4 5 7 8 9 10 11 12 13 14 15 16]{2} 6{8}  [1 2 3 4 5 7 8 9 10 11 12 13 14 15 16]*) | ([1 2 3 4 5 7 8 9 10 11 12 13 14 15 16]* 6{1} [1 2 3 4 5 7 8 9 10 11 12 13 14 15 16]{9} [1 2 3 4 5 7 8 9 10 11 12 13 14 15 16] 6{2} [1 2 3 4 5 7 8 9 10 11 12 13 14 15 16]{8} [1 2 3 4 5 7 8 9 10 11 12 13 14 15 16] 6{2} [1 2 3 4 5 7 8 9 10 11 12 13 14 15 16]{8} [1 2 3 4 5 7 8 9 10 11 12 13 14 15 16] 6{2} [1 2 3 4 5 7 8 9 10 11 12 13 14 15 16]{8} [1 2 3 4 5 7 8 9 10 11 12 13 14 15 16] 6{3} [1 2 3 4 5 7 8 9 10 11 12 13 14 15 16]{7} [1 2 3 4 5 7 8 9 10 11 12 13 14 15 16] 6{1} [1 2 3 4 5 7 8 9 10 11 12 13 14 15 16]{9} [1 2 3 4 5 7 8 9 10 11 12 13 14 15 16] 6{1} [1 2 3 4 5 7 8 9 10 11 12 13 14 15 16]{9} [1 2 3 4 5 7 8 9 10 11 12 13 14 15 16] 6{1}  [1 2 3 4 5 7 8 9 10 11 12 13 14 15 16]*) | ([1 2 3 4 5 7 8 9 10 11 12 13 14 15 16]* 6{8} [1 2 3 4 5 7 8 9 10 11 12 13 14 15 16] [1 2 3 4 5 7 8 9 10 11 12 13 14 15 16]{3} 6{4} [1 2 3 4 5 7 8 9 10 11 12 13 14 15 16]{3} [1 2 3 4 5 7 8 9 10 11 12 13 14 15 16] [1 2 3 4 5 7 8 9 10 11 12 13 14 15 16]{6} 6{1}  [1 2 3 4 5 7 8 9 10 11 12 13 14 15 16]*) | ([1 2 3 4 5 7 8 9 10 11 12 13 14 15 16]* 6{1} [1 2 3 4 5 7 8 9 10 11 12 13 14 15 16]{9} [1 2 3 4 5 7 8 9 10 11 12 13 14 15 16] 6{1} [1 2 3 4 5 7 8 9 10 11 12 13 14 15 16]{9} [1 2 3 4 5 7 8 9 10 11 12 13 14 15 16] 6{1} [1 2 3 4 5 7 8 9 10 11 12 13 14 15 16]{9} [1 2 3 4 5 7 8 9 10 11 12 13 14 15 16] 6{3} [1 2 3 4 5 7 8 9 10 11 12 13 14 15 16]{7} [1 2 3 4 5 7 8 9 10 11 12 13 14 15 16] 6{2} [1 2 3 4 5 7 8 9 10 11 12 13 14 15 16]{8} [1 2 3 4 5 7 8 9 10 11 12 13 14 15 16] 6{2} [1 2 3 4 5 7 8 9 10 11 12 13 14 15 16]{8} [1 2 3 4 5 7 8 9 10 11 12 13 14 15 16] 6{2} [1 2 3 4 5 7 8 9 10 11 12 13 14 15 16]{8} [1 2 3 4 5 7 8 9 10 11 12 13 14 15 16] 6{1}  [1 2 3 4 5 7 8 9 10 11 12 13 14 15 16]*) | ([1 2 3 4 5 7 8 9 10 11 12 13 14 15 16]* 6{1} [1 2 3 4 5 7 8 9 10 11 12 13 14 15 16]{6} [1 2 3 4 5 7 8 9 10 11 12 13 14 15 16] [1 2 3 4 5 7 8 9 10 11 12 13 14 15 16]{3} 6{4} [1 2 3 4 5 7 8 9 10 11 12 13 14 15 16]{3} [1 2 3 4 5 7 8 9 10 11 12 13 14 15 16] 6{8}  [1 2 3 4 5 7 8 9 10 11 12 13 14 15 16]*) | ([1 2 3 4 5 7 8 9 10 11 12 13 14 15 16]* 6{1} [1 2 3 4 5 7 8 9 10 11 12 13 14 15 16] [1 2 3 4 5 7 8 9 10 11 12 13 14 15 16]{8} 6{2} [1 2 3 4 5 7 8 9 10 11 12 13 14 15 16] [1 2 3 4 5 7 8 9 10 11 12 13 14 15 16]{8} 6{2} [1 2 3 4 5 7 8 9 10 11 12 13 14 15 16] [1 2 3 4 5 7 8 9 10 11 12 13 14 15 16]{8} 6{2} [1 2 3 4 5 7 8 9 10 11 12 13 14 15 16] [1 2 3 4 5 7 8 9 10 11 12 13 14 15 16]{7} 6{3} [1 2 3 4 5 7 8 9 10 11 12 13 14 15 16] [1 2 3 4 5 7 8 9 10 11 12 13 14 15 16]{9} 6{1} [1 2 3 4 5 7 8 9 10 11 12 13 14 15 16] [1 2 3 4 5 7 8 9 10 11 12 13 14 15 16]{9} 6{1} [1 2 3 4 5 7 8 9 10 11 12 13 14 15 16] [1 2 3 4 5 7 8 9 10 11 12 13 14 15 16]{9} 6{1}  [1 2 3 4 5 7 8 9 10 11 12 13 14 15 16]*) )",
    "( ([1 2 3 4 5 6 8 9 10 11 12 13 14 15 16]* 7{3} [1 2 3 4 5 6 8 9 10 11 12 13 14 15 16]{3} [1 2 3 4 5 6 8 9 10 11 12 13 14 15 16] [1 2 3 4 5 6 8 9 10 11 12 13 14 15 16]{4} 7{3} [1 2 3 4 5 6 8 9 10 11 12 13 14 15 16]{3} [1 2 3 4 5 6 8 9 10 11 12 13 14 15 16] [1 2 3 4 5 6 8 9 10 11 12 13 14 15 16]{6} 7{1}  [1 2 3 4 5 6 8 9 10 11 12 13 14 15 16]*) | ([1 2 3 4 5 6 8 9 10 11 12 13 14 15 16]* 7{2} [1 2 3 4 5 6 8 9 10 11 12 13 14 15 16]{2} [1 2 3 4 5 6 8 9 10 11 12 13 14 15 16] [1 2 3 4 5 6 8 9 10 11 12 13 14 15 16]{6} 7{2} [1 2 3 4 5 6 8 9 10 11 12 13 14 15 16]{2} [1 2 3 4 5 6 8 9 10 11 12 13 14 15 16] [1 2 3 4 5 6 8 9 10 11 12 13 14 15 16]{5} 7{3}  [1 2 3 4 5 6 8 9 10 11 12 13 14 15 16]*) | ([1 2 3 4 5 6 8 9 10 11 12 13 14 15 16]* 7{1} [1 2 3 4 5 6 8 9 10 11 12 13 14 15 16]{6} [1 2 3 4 5 6 8 9 10 11 12 13 14 15 16] [1 2 3 4 5 6 8 9 10 11 12 13 14 15 16]{3} 7{3} [1 2 3 4 5 6 8 9 10 11 12 13 14 15 16]{4} [1 2 3 4 5 6 8 9 10 11 12 13 14 15 16] [1 2 3 4 5 6 8 9 10 11 12 13 14 15 16]{3} 7{3}  [1 2 3 4 5 6 8 9 10 11 12 13 14 15 16]*) | ([1 2 3 4 5 6 8 9 10 11 12 13 14 15 16]* 7{3} [1 2 3 4 5 6 8 9 10 11 12 13 14 15 16]{5} [1 2 3 4 5 6 8 9 10 11 12 13 14 15 16] [1 2 3 4 5 6 8 9 10 11 12 13 14 15 16]{2} 7{2} [1 2 3 4 5 6 8 9 10 11 12 13 14 15 16]{6} [1 2 3 4 5 6 8 9 10 11 12 13 14 15 16] [1 2 3 4 5 6 8 9 10 11 12 13 14 15 16]{2} 7{2}  [1 2 3 4 5 6 8 9 10 11 12 13 14 15 16]*) | ([1 2 3 4 5 6 8 9 10 11 12 13 14 15 16]* 7{3} [1 2 3 4 5 6 8 9 10 11 12 13 14 15 16]{4} [1 2 3 4 5 6 8 9 10 11 12 13 14 15 16] [1 2 3 4 5 6 8 9 10 11 12 13 14 15 16]{3} 7{3} [1 2 3 4 5 6 8 9 10 11 12 13 14 15 16]{4} [1 2 3 4 5 6 8 9 10 11 12 13 14 15 16] [1 2 3 4 5 6 8 9 10 11 12 13 14 15 16]{3} 7{1}  [1 2 3 4 5 6 8 9 10 11 12 13 14 15 16]*) | ([1 2 3 4 5 6 8 9 10 11 12 13 14 15 16]* 7{2} [1 2 3 4 5 6 8 9 10 11 12 13 14 15 16]{6} [1 2 3 4 5 6 8 9 10 11 12 13 14 15 16] [1 2 3 4 5 6 8 9 10 11 12 13 14 15 16]{2} 7{2} [1 2 3 4 5 6 8 9 10 11 12 13 14 15 16]{6} [1 2 3 4 5 6 8 9 10 11 12 13 14 15 16] [1 2 3 4 5 6 8 9 10 11 12 13 14 15 16]{2} 7{3}  [1 2 3 4 5 6 8 9 10 11 12 13 14 15 16]*) | ([1 2 3 4 5 6 8 9 10 11 12 13 14 15 16]* 7{1} [1 2 3 4 5 6 8 9 10 11 12 13 14 15 16]{3} [1 2 3 4 5 6 8 9 10 11 12 13 14 15 16] [1 2 3 4 5 6 8 9 10 11 12 13 14 15 16]{4} 7{3} [1 2 3 4 5 6 8 9 10 11 12 13 14 15 16]{3} [1 2 3 4 5 6 8 9 10 11 12 13 14 15 16] [1 2 3 4 5 6 8 9 10 11 12 13 14 15 16]{4} 7{3}  [1 2 3 4 5 6 8 9 10 11 12 13 14 15 16]*) | ([1 2 3 4 5 6 8 9 10 11 12 13 14 15 16]* 7{3} [1 2 3 4 5 6 8 9 10 11 12 13 14 15 16]{2} [1 2 3 4 5 6 8 9 10 11 12 13 14 15 16] [1 2 3 4 5 6 8 9 10 11 12 13 14 15 16]{6} 7{2} [1 2 3 4 5 6 8 9 10 11 12 13 14 15 16]{2} [1 2 3 4 5 6 8 9 10 11 12 13 14 15 16] [1 2 3 4 5 6 8 9 10 11 12 13 14 15 16]{6} 7{2}  [1 2 3 4 5 6 8 9 10 11 12 13 14 15 16]*) )",
    "( ([1 2 3 4 5 6 7 9 10 11 12 13 14 15 16]* 8{1} [1 2 3 4 5 6 7 9 10 11 12 13 14 15 16]{7} [1 2 3 4 5 6 7 9 10 11 12 13 14 15 16] [1 2 3 4 5 6 7 9 10 11 12 13 14 15 16]{2} 8{2} [1 2 3 4 5 6 7 9 10 11 12 13 14 15 16]{6} [1 2 3 4 5 6 7 9 10 11 12 13 14 15 16] [1 2 3 4 5 6 7 9 10 11 12 13 14 15 16]{2} 8{2} [1 2 3 4 5 6 7 9 10 11 12 13 14 15 16]{6} [1 2 3 4 5 6 7 9 10 11 12 13 14 15 16] [1 2 3 4 5 6 7 9 10 11 12 13 14 15 16]{1} 8{5}  [1 2 3 4 5 6 7 9 10 11 12 13 14 15 16]*) | ([1 2 3 4 5 6 7 9 10 11 12 13 14 15 16]* 8{1} [1 2 3 4 5 6 7 9 10 11 12 13 14 15 16]{9} [1 2 3 4 5 6 7 9 10 11 12 13 14 15 16] 8{4} [1 2 3 4 5 6 7 9 10 11 12 13 14 15 16]{6} [1 2 3 4 5 6 7 9 10 11 12 13 14 15 16] 8{3} [1 2 3 4 5 6 7 9 10 11 12 13 14 15 16]{7} [1 2 3 4 5 6 7 9 10 11 12 13 14 15 16] 8{1} [1 2 3 4 5 6 7 9 10 11 12 13 14 15 16]{9} [1 2 3 4 5 6 7 9 10 11 12 13 14 15 16] 8{1}  [1 2 3 4 5 6 7 9 10 11 12 13 14 15 16]*) | ([1 2 3 4 5 6 7 9 10 11 12 13 14 15 16]* 8{5} [1 2 3 4 5 6 7 9 10 11 12 13 14 15 16]{1} [1 2 3 4 5 6 7 9 10 11 12 13 14 15 16] [1 2 3 4 5 6 7 9 10 11 12 13 14 15 16]{6} 8{2} [1 2 3 4 5 6 7 9 10 11 12 13 14 15 16]{2} [1 2 3 4 5 6 7 9 10 11 12 13 14 15 16] [1 2 3 4 5 6 7 9 10 11 12 13 14 15 16]{6} 8{2} [1 2 3 4 5 6 7 9 10 11 12 13 14 15 16]{2} [1 2 3 4 5 6 7 9 10 11 12 13 14 15 16] [1 2 3 4 5 6 7 9 10 11 12 13 14 15 16]{7} 8{1}  [1 2 3 4 5 6 7 9 10 11 12 13 14 15 16]*) | ([1 2 3 4 5 6 7 9 10 11 12 13 14 15 16]* 8{1} [1 2 3 4 5 6 7 9 10 11 12 13 14 15 16] [1 2 3 4 5 6 7 9 10 11 12 13 14 15 16]{9} 8{1} [1 2 3 4 5 6 7 9 10 11 12 13 14 15 16] [1 2 3 4 5 6 7 9 10 11 12 13 14 15 16]{7} 8{3} [1 2 3 4 5 6 7 9 10 11 12 13 14 15 16] [1 2 3 4 5 6 7 9 10 11 12 13 14 15 16]{6} 8{4} [1 2 3 4 5 6 7 9 10 11 12 13 14 15 16] [1 2 3 4 5 6 7 9 10 11 12 13 14 15 16]{9} 8{1}  [1 2 3 4 5 6 7 9 10 11 12 13 14 15 16]*) | ([1 2 3 4 5 6 7 9 10 11 12 13 14 15 16]* 8{1} [1 2 3 4 5 6 7 9 10 11 12 13 14 15 16]{2} [1 2 3 4 5 6 7 9 10 11 12 13 14 15 16] [1 2 3 4 5 6 7 9 10 11 12 13 14 15 16]{6} 8{2} [1 2 3 4 5 6 7 9 10 11 12 13 14 15 16]{2} [1 2 3 4 5 6 7 9 10 11 12 13 14 15 16] [1 2 3 4 5 6 7 9 10 11 12 13 14 15 16]{6} 8{2} [1 2 3 4 5 6 7 9 10 11 12 13 14 15 16]{2} [1 2 3 4 5 6 7 9 10 11 12 13 14 15 16] [1 2 3 4 5 6 7 9 10 11 12 13 14 15 16]{4} 8{5}  [1 2 3 4 5 6 7 9 10 11 12 13 14 15 16]*) | ([1 2 3 4 5 6 7 9 10 11 12 13 14 15 16]* 8{1} [1 2 3 4 5 6 7 9 10 11 12 13 14 15 16] [1 2 3 4 5 6 7 9 10 11 12 13 14 15 16]{6} 8{4} [1 2 3 4 5 6 7 9 10 11 12 13 14 15 16] [1 2 3 4 5 6 7 9 10 11 12 13 14 15 16]{7} 8{3} [1 2 3 4 5 6 7 9 10 11 12 13 14 15 16] [1 2 3 4 5 6 7 9 10 11 12 13 14 15 16]{9} 8{1} [1 2 3 4 5 6 7 9 10 11 12 13 14 15 16] [1 2 3 4 5 6 7 9 10 11 12 13 14 15 16]{9} 8{1}  [1 2 3 4 5 6 7 9 10 11 12 13 14 15 16]*) | ([1 2 3 4 5 6 7 9 10 11 12 13 14 15 16]* 8{5} [1 2 3 4 5 6 7 9 10 11 12 13 14 15 16]{4} [1 2 3 4 5 6 7 9 10 11 12 13 14 15 16] [1 2 3 4 5 6 7 9 10 11 12 13 14 15 16]{2} 8{2} [1 2 3 4 5 6 7 9 10 11 12 13 14 15 16]{6} [1 2 3 4 5 6 7 9 10 11 12 13 14 15 16] [1 2 3 4 5 6 7 9 10 11 12 13 14 15 16]{2} 8{2} [1 2 3 4 5 6 7 9 10 11 12 13 14 15 16]{6} [1 2 3 4 5 6 7 9 10 11 12 13 14 15 16] [1 2 3 4 5 6 7 9 10 11 12 13 14 15 16]{2} 8{1}  [1 2 3 4 5 6 7 9 10 11 12 13 14 15 16]*) | ([1 2 3 4 5 6 7 9 10 11 12 13 14 15 16]* 8{1} [1 2 3 4 5 6 7 9 10 11 12 13 14 15 16]{9} [1 2 3 4 5 6 7 9 10 11 12 13 14 15 16] 8{1} [1 2 3 4 5 6 7 9 10 11 12 13 14 15 16]{9} [1 2 3 4 5 6 7 9 10 11 12 13 14 15 16] 8{3} [1 2 3 4 5 6 7 9 10 11 12 13 14 15 16]{7} [1 2 3 4 5 6 7 9 10 11 12 13 14 15 16] 8{4} [1 2 3 4 5 6 7 9 10 11 12 13 14 15 16]{6} [1 2 3 4 5 6 7 9 10 11 12 13 14 15 16] 8{1}  [1 2 3 4 5 6 7 9 10 11 12 13 14 15 16]*) )",
    "( ([1 2 3 4 5 6 7 8 10 11 12 13 14 15 16]* 9{1} [1 2 3 4 5 6 7 8 10 11 12 13 14 15 16] [1 2 3 4 5 6 7 8 10 11 12 13 14 15 16]{9} 9{1} [1 2 3 4 5 6 7 8 10 11 12 13 14 15 16] [1 2 3 4 5 6 7 8 10 11 12 13 14 15 16]{6} 9{4}  [1 2 3 4 5 6 7 8 10 11 12 13 14 15 16]*) | ([1 2 3 4 5 6 7 8 10 11 12 13 14 15 16]* 9{1} [1 2 3 4 5 6 7 8 10 11 12 13 14 15 16]{9} [1 2 3 4 5 6 7 8 10 11 12 13 14 15 16] 9{1} [1 2 3 4 5 6 7 8 10 11 12 13 14 15 16]{9} [1 2 3 4 5 6 7 8 10 11 12 13 14 15 16] 9{1} [1 2 3 4 5 6 7 8 10 11 12 13 14 15 16]{9} [1 2 3 4 5 6 7 8 10 11 12 13 14 15 16] 9{3}  [1 2 3 4 5 6 7 8 10 11 12 13 14 15 16]*) | ([1 2 3 4 5 6 7 8 10 11 12 13 14 15 16]* 9{4} [1 2 3 4 5 6 7 8 10 11 12 13 14 15 16]{6} [1 2 3 4 5 6 7 8 10 11 12 13 14 15 16] 9{1} [1 2 3 4 5 6 7 8 10 11 12 13 14 15 16]{9} [1 2 3 4 5 6 7 8 10 11 12 13 14 15 16] 9{1}  [1 2 3 4 5 6 7 8 10 11 12 13 14 15 16]*) | ([1 2 3 4 5 6 7 8 10 11 12 13 14 15 16]* 9{3} [1 2 3 4 5 6 7 8 10 11 12 13 14 15 16] [1 2 3 4 5 6 7 8 10 11 12 13 14 15 16]{9} 9{1} [1 2 3 4 5 6 7 8 10 11 12 13 14 15 16] [1 2 3 4 5 6 7 8 10 11 12 13 14 15 16]{9} 9{1} [1 2 3 4 5 6 7 8 10 11 12 13 14 15 16] [1 2 3 4 5 6 7 8 10 11 12 13 14 15 16]{9} 9{1}  [1 2 3 4 5 6 7 8 10 11 12 13 14 15 16]*) | ([1 2 3 4 5 6 7 8 10 11 12 13 14 15 16]* 9{1} [1 2 3 4 5 6 7 8 10 11 12 13 14 15 16]{9} [1 2 3 4 5 6 7 8 10 11 12 13 14 15 16] 9{1} [1 2 3 4 5 6 7 8 10 11 12 13 14 15 16]{9} [1 2 3 4 5 6 7 8 10 11 12 13 14 15 16] 9{4}  [1 2 3 4 5 6 7 8 10 11 12 13 14 15 16]*) | ([1 2 3 4 5 6 7 8 10 11 12 13 14 15 16]* 9{1} [1 2 3 4 5 6 7 8 10 11 12 13 14 15 16] [1 2 3 4 5 6 7 8 10 11 12 13 14 15 16]{9} 9{1} [1 2 3 4 5 6 7 8 10 11 12 13 14 15 16] [1 2 3 4 5 6 7 8 10 11 12 13 14 15 16]{9} 9{1} [1 2 3 4 5 6 7 8 10 11 12 13 14 15 16] [1 2 3 4 5 6 7 8 10 11 12 13 14 15 16]{7} 9{3}  [1 2 3 4 5 6 7 8 10 11 12 13 14 15 16]*) | ([1 2 3 4 5 6 7 8 10 11 12 13 14 15 16]* 9{4} [1 2 3 4 5 6 7 8 10 11 12 13 14 15 16] [1 2 3 4 5 6 7 8 10 11 12 13 14 15 16]{9} 9{1} [1 2 3 4 5 6 7 8 10 11 12 13 14 15 16] [1 2 3 4 5 6 7 8 10 11 12 13 14 15 16]{9} 9{1}  [1 2 3 4 5 6 7 8 10 11 12 13 14 15 16]*) | ([1 2 3 4 5 6 7 8 10 11 12 13 14 15 16]* 9{3} [1 2 3 4 5 6 7 8 10 11 12 13 14 15 16]{7} [1 2 3 4 5 6 7 8 10 11 12 13 14 15 16] 9{1} [1 2 3 4 5 6 7 8 10 11 12 13 14 15 16]{9} [1 2 3 4 5 6 7 8 10 11 12 13 14 15 16] 9{1} [1 2 3 4 5 6 7 8 10 11 12 13 14 15 16]{9} [1 2 3 4 5 6 7 8 10 11 12 13 14 15 16] 9{1}  [1 2 3 4 5 6 7 8 10 11 12 13 14 15 16]*) )",
    "( ([1 2 3 4 5 6 7 8 9 11 12 13 14 15 16]* 10{3} [1 2 3 4 5 6 7 8 9 11 12 13 14 15 16]{7} [1 2 3 4 5 6 7 8 9 11 12 13 14 15 16] [1 2 3 4 5 6 7 8 9 11 12 13 14 15 16]{1} 10{2} [1 2 3 4 5 6 7 8 9 11 12 13 14 15 16]{7} [1 2 3 4 5 6 7 8 9 11 12 13 14 15 16] [1 2 3 4 5 6 7 8 9 11 12 13 14 15 16]{2} 10{2} [1 2 3 4 5 6 7 8 9 11 12 13 14 15 16]{6} [1 2 3 4 5 6 7 8 9 11 12 13 14 15 16] [1 2 3 4 5 6 7 8 9 11 12 13 14 15 16]{2} 10{2}  [1 2 3 4 5 6 7 8 9 11 12 13 14 15 16]*) | ([1 2 3 4 5 6 7 8 9 11 12 13 14 15 16]* 10{1} [1 2 3 4 5 6 7 8 9 11 12 13 14 15 16]{1} [1 2 3 4 5 6 7 8 9 11 12 13 14 15 16] [1 2 3 4 5 6 7 8 9 11 12 13 14 15 16]{7} 10{2} [1 2 3 4 5 6 7 8 9 11 12 13 14 15 16]{1} [1 2 3 4 5 6 7 8 9 11 12 13 14 15 16] [1 2 3 4 5 6 7 8 9 11 12 13 14 15 16]{5} 10{4} [1 2 3 4 5 6 7 8 9 11 12 13 14 15 16]{1} [1 2 3 4 5 6 7 8 9 11 12 13 14 15 16] [1 2 3 4 5 6 7 8 9 11 12 13 14 15 16]{5} 10{2}  [1 2 3 4 5 6 7 8 9 11 12 13 14 15 16]*) | ([1 2 3 4 5 6 7 8 9 11 12 13 14 15 16]* 10{2} [1 2 3 4 5 6 7 8 9 11 12 13 14 15 16]{2} [1 2 3 4 5 6 7 8 9 11 12 13 14 15 16] [1 2 3 4 5 6 7 8 9 11 12 13 14 15 16]{6} 10{2} [1 2 3 4 5 6 7 8 9 11 12 13 14 15 16]{2} [1 2 3 4 5 6 7 8 9 11 12 13 14 15 16] [1 2 3 4 5 6 7 8 9 11 12 13 14 15 16]{7} 10{2} [1 2 3 4 5 6 7 8 9 11 12 13 14 15 16]{1} [1 2 3 4 5 6 7 8 9 11 12 13 14 15 16] [1 2 3 4 5 6 7 8 9 11 12 13 14 15 16]{7} 10{3}  [1 2 3 4 5 6 7 8 9 11 12 13 14 15 16]*) | ([1 2 3 4 5 6 7 8 9 11 12 13 14 15 16]* 10{2} [1 2 3 4 5 6 7 8 9 11 12 13 14 15 16]{5} [1 2 3 4 5 6 7 8 9 11 12 13 14 15 16] [1 2 3 4 5 6 7 8 9 11 12 13 14 15 16]{1} 10{4} [1 2 3 4 5 6 7 8 9 11 12 13 14 15 16]{5} [1 2 3 4 5 6 7 8 9 11 12 13 14 15 16] [1 2 3 4 5 6 7 8 9 11 12 13 14 15 16]{1} 10{2} [1 2 3 4 5 6 7 8 9 11 12 13 14 15 16]{7} [1 2 3 4 5 6 7 8 9 11 12 13 14 15 16] [1 2 3 4 5 6 7 8 9 11 12 13 14 15 16]{1} 10{1}  [1 2 3 4 5 6 7 8 9 11 12 13 14 15 16]*) | ([1 2 3 4 5 6 7 8 9 11 12 13 14 15 16]* 10{3} [1 2 3 4 5 6 7 8 9 11 12 13 14 15 16] [1 2 3 4 5 6 7 8 9 11 12 13 14 15 16]{7} 10{2} [1 2 3 4 5 6 7 8 9 11 12 13 14 15 16]{1} [1 2 3 4 5 6 7 8 9 11 12 13 14 15 16] [1 2 3 4 5 6 7 8 9 11 12 13 14 15 16]{6} 10{2} [1 2 3 4 5 6 7 8 9 11 12 13 14 15 16]{2} [1 2 3 4 5 6 7 8 9 11 12 13 14 15 16] [1 2 3 4 5 6 7 8 9 11 12 13 14 15 16]{6} 10{2}  [1 2 3 4 5 6 7 8 9 11 12 13 14 15 16]*) | ([1 2 3 4 5 6 7 8 9 11 12 13 14 15 16]* 10{1} [1 2 3 4 5 6 7 8 9 11 12 13 14 15 16]{8} [1 2 3 4 5 6 7 8 9 11 12 13 14 15 16] [1 2 3 4 5 6 7 8 9 11 12 13 14 15 16]{1} 10{2} [1 2 3 4 5 6 7 8 9 11 12 13 14 15 16]{7} [1 2 3 4 5 6 7 8 9 11 12 13 14 15 16] [1 2 3 4 5 6 7 8 9 11 12 13 14 15 16]{1} 10{4} [1 2 3 4 5 6 7 8 9 11 12 13 14 15 16]{5} [1 2 3 4 5 6 7 8 9 11 12 13 14 15 16] [1 2 3 4 5 6 7 8 9 11 12 13 14 15 16]{3} 10{2}  [1 2 3 4 5 6 7 8 9 11 12 13 14 15 16]*) | ([1 2 3 4 5 6 7 8 9 11 12 13 14 15 16]* 10{2} [1 2 3 4 5 6 7 8 9 11 12 13 14 15 16]{6} [1 2 3 4 5 6 7 8 9 11 12 13 14 15 16] [1 2 3 4 5 6 7 8 9 11 12 13 14 15 16]{2} 10{2} [1 2 3 4 5 6 7 8 9 11 12 13 14 15 16]{6} [1 2 3 4 5 6 7 8 9 11 12 13 14 15 16] [1 2 3 4 5 6 7 8 9 11 12 13 14 15 16]{1} 10{2} [1 2 3 4 5 6 7 8 9 11 12 13 14 15 16]{7} [1 2 3 4 5 6 7 8 9 11 12 13 14 15 16] 10{3}  [1 2 3 4 5 6 7 8 9 11 12 13 14 15 16]*) | ([1 2 3 4 5 6 7 8 9 11 12 13 14 15 16]* 10{2} [1 2 3 4 5 6 7 8 9 11 12 13 14 15 16]{3} [1 2 3 4 5 6 7 8 9 11 12 13 14 15 16] [1 2 3 4 5 6 7 8 9 11 12 13 14 15 16]{5} 10{4} [1 2 3 4 5 6 7 8 9 11 12 13 14 15 16]{1} [1 2 3 4 5 6 7 8 9 11 12 13 14 15 16] [1 2 3 4 5 6 7 8 9 11 12 13 14 15 16]{7} 10{2} [1 2 3 4 5 6 7 8 9 11 12 13 14 15 16]{1} [1 2 3 4 5 6 7 8 9 11 12 13 14 15 16] [1 2 3 4 5 6 7 8 9 11 12 13 14 15 16]{8} 10{1}  [1 2 3 4 5 6 7 8 9 11 12 13 14 15 16]*) )",
    "( ([1 2 3 4 5 6 7 8 9 10 12 13 14 15 16]* 11{2} [1 2 3 4 5 6 7 8 9 10 12 13 14 15 16] [1 2 3 4 5 6 7 8 9 10 12 13 14 15 16]{8} 11{2} [1 2 3 4 5 6 7 8 9 10 12 13 14 15 16] [1 2 3 4 5 6 7 8 9 10 12 13 14 15 16]{8} 11{2} [1 2 3 4 5 6 7 8 9 10 12 13 14 15 16] [1 2 3 4 5 6 7 8 9 10 12 13 14 15 16]{9} 11{1} [1 2 3 4 5 6 7 8 9 10 12 13 14 15 16] [1 2 3 4 5 6 7 8 9 10 12 13 14 15 16]{9} 11{1}  [1 2 3 4 5 6 7 8 9 10 12 13 14 15 16]*) | ([1 2 3 4 5 6 7 8 9 10 12 13 14 15 16]* 11{3} [1 2 3 4 5 6 7 8 9 10 12 13 14 15 16] [1 2 3 4 5 6 7 8 9 10 12 13 14 15 16]{5} 11{5}  [1 2 3 4 5 6 7 8 9 10 12 13 14 15 16]*) | ([1 2 3 4 5 6 7 8 9 10 12 13 14 15 16]* 11{1} [1 2 3 4 5 6 7 8 9 10 12 13 14 15 16]{9} [1 2 3 4 5 6 7 8 9 10 12 13 14 15 16] 11{1} [1 2 3 4 5 6 7 8 9 10 12 13 14 15 16]{9} [1 2 3 4 5 6 7 8 9 10 12 13 14 15 16] 11{2} [1 2 3 4 5 6 7 8 9 10 12 13 14 15 16]{8} [1 2 3 4 5 6 7 8 9 10 12 13 14 15 16] 11{2} [1 2 3 4 5 6 7 8 9 10 12 13 14 15 16]{8} [1 2 3 4 5 6 7 8 9 10 12 13 14 15 16] 11{2}  [1 2 3 4 5 6 7 8 9 10 12 13 14 15 16]*) | ([1 2 3 4 5 6 7 8 9 10 12 13 14 15 16]* 11{5} [1 2 3 4 5 6 7 8 9 10 12 13 14 15 16]{5} [1 2 3 4 5 6 7 8 9 10 12 13 14 15 16] 11{3}  [1 2 3 4 5 6 7 8 9 10 12 13 14 15 16]*) | ([1 2 3 4 5 6 7 8 9 10 12 13 14 15 16]* 11{2} [1 2 3 4 5 6 7 8 9 10 12 13 14 15 16]{8} [1 2 3 4 5 6 7 8 9 10 12 13 14 15 16] 11{2} [1 2 3 4 5 6 7 8 9 10 12 13 14 15 16]{8} [1 2 3 4 5 6 7 8 9 10 12 13 14 15 16] 11{2} [1 2 3 4 5 6 7 8 9 10 12 13 14 15 16]{8} [1 2 3 4 5 6 7 8 9 10 12 13 14 15 16] 11{1} [1 2 3 4 5 6 7 8 9 10 12 13 14 15 16]{9} [1 2 3 4 5 6 7 8 9 10 12 13 14 15 16] 11{1}  [1 2 3 4 5 6 7 8 9 10 12 13 14 15 16]*) | ([1 2 3 4 5 6 7 8 9 10 12 13 14 15 16]* 11{3} [1 2 3 4 5 6 7 8 9 10 12 13 14 15 16]{7} [1 2 3 4 5 6 7 8 9 10 12 13 14 15 16] 11{5}  [1 2 3 4 5 6 7 8 9 10 12 13 14 15 16]*) | ([1 2 3 4 5 6 7 8 9 10 12 13 14 15 16]* 11{1} [1 2 3 4 5 6 7 8 9 10 12 13 14 15 16] [1 2 3 4 5 6 7 8 9 10 12 13 14 15 16]{9} 11{1} [1 2 3 4 5 6 7 8 9 10 12 13 14 15 16] [1 2 3 4 5 6 7 8 9 10 12 13 14 15 16]{8} 11{2} [1 2 3 4 5 6 7 8 9 10 12 13 14 15 16] [1 2 3 4 5 6 7 8 9 10 12 13 14 15 16]{8} 11{2} [1 2 3 4 5 6 7 8 9 10 12 13 14 15 16] [1 2 3 4 5 6 7 8 9 10 12 13 14 15 16]{8} 11{2}  [1 2 3 4 5 6 7 8 9 10 12 13 14 15 16]*) | ([1 2 3 4 5 6 7 8 9 10 12 13 14 15 16]* 11{5} [1 2 3 4 5 6 7 8 9 10 12 13 14 15 16] [1 2 3 4 5 6 7 8 9 10 12 13 14 15 16]{7} 11{3}  [1 2 3 4 5 6 7 8 9 10 12 13 14 15 16]*) )",
    "( ([1 2 3 4 5 6 7 8 9 10 11 13 14 15 16]* 12{2}  [1 2 3 4 5 6 7 8 9 10 11 13 14 15 16]*) | ([1 2 3 4 5 6 7 8 9 10 11 13 14 15 16]* 12{1} [1 2 3 4 5 6 7 8 9 10 11 13 14 15 16]{4} [1 2 3 4 5 6 7 8 9 10 11 13 14 15 16] [1 2 3 4 5 6 7 8 9 10 11 13 14 15 16]{5} 12{1}  [1 2 3 4 5 6 7 8 9 10 11 13 14 15 16]*) | ([1 2 3 4 5 6 7 8 9 10 11 13 14 15 16]* 12{2}  [1 2 3 4 5 6 7 8 9 10 11 13 14 15 16]*) | ([1 2 3 4 5 6 7 8 9 10 11 13 14 15 16]* 12{1} [1 2 3 4 5 6 7 8 9 10 11 13 14 15 16]{5} [1 2 3 4 5 6 7 8 9 10 11 13 14 15 16] [1 2 3 4 5 6 7 8 9 10 11 13 14 15 16]{4} 12{1}  [1 2 3 4 5 6 7 8 9 10 11 13 14 15 16]*) | ([1 2 3 4 5 6 7 8 9 10 11 13 14 15 16]* 12{2}  [1 2 3 4 5 6 7 8 9 10 11 13 14 15 16]*) | ([1 2 3 4 5 6 7 8 9 10 11 13 14 15 16]* 12{1} [1 2 3 4 5 6 7 8 9 10 11 13 14 15 16]{5} [1 2 3 4 5 6 7 8 9 10 11 13 14 15 16] [1 2 3 4 5 6 7 8 9 10 11 13 14 15 16]{4} 12{1}  [1 2 3 4 5 6 7 8 9 10 11 13 14 15 16]*) | ([1 2 3 4 5 6 7 8 9 10 11 13 14 15 16]* 12{2}  [1 2 3 4 5 6 7 8 9 10 11 13 14 15 16]*) | ([1 2 3 4 5 6 7 8 9 10 11 13 14 15 16]* 12{1} [1 2 3 4 5 6 7 8 9 10 11 13 14 15 16]{4} [1 2 3 4 5 6 7 8 9 10 11 13 14 15 16] [1 2 3 4 5 6 7 8 9 10 11 13 14 15 16]{5} 12{1}  [1 2 3 4 5 6 7 8 9 10 11 13 14 15 16]*) )",
    "( ([1 2 3 4 5 6 7 8 9 10 11 12 14 15 16]* 13{3}  [1 2 3 4 5 6 7 8 9 10 11 12 14 15 16]*) | ([1 2 3 4 5 6 7 8 9 10 11 12 14 15 16]* 13{1} [1 2 3 4 5 6 7 8 9 10 11 12 14 15 16]{6} [1 2 3 4 5 6 7 8 9 10 11 12 14 15 16] [1 2 3 4 5 6 7 8 9 10 11 12 14 15 16]{3} 13{1} [1 2 3 4 5 6 7 8 9 10 11 12 14 15 16]{6} [1 2 3 4 5 6 7 8 9 10 11 12 14 15 16] [1 2 3 4 5 6 7 8 9 10 11 12 14 15 16]{3} 13{1}  [1 2 3 4 5 6 7 8 9 10 11 12 14 15 16]*) | ([1 2 3 4 5 6 7 8 9 10 11 12 14 15 16]* 13{3}  [1 2 3 4 5 6 7 8 9 10 11 12 14 15 16]*) | ([1 2 3 4 5 6 7 8 9 10 11 12 14 15 16]* 13{1} [1 2 3 4 5 6 7 8 9 10 11 12 14 15 16]{3} [1 2 3 4 5 6 7 8 9 10 11 12 14 15 16] [1 2 3 4 5 6 7 8 9 10 11 12 14 15 16]{6} 13{1} [1 2 3 4 5 6 7 8 9 10 11 12 14 15 16]{3} [1 2 3 4 5 6 7 8 9 10 11 12 14 15 16] [1 2 3 4 5 6 7 8 9 10 11 12 14 15 16]{6} 13{1}  [1 2 3 4 5 6 7 8 9 10 11 12 14 15 16]*) | ([1 2 3 4 5 6 7 8 9 10 11 12 14 15 16]* 13{3}  [1 2 3 4 5 6 7 8 9 10 11 12 14 15 16]*) | ([1 2 3 4 5 6 7 8 9 10 11 12 14 15 16]* 13{1} [1 2 3 4 5 6 7 8 9 10 11 12 14 15 16]{3} [1 2 3 4 5 6 7 8 9 10 11 12 14 15 16] [1 2 3 4 5 6 7 8 9 10 11 12 14 15 16]{6} 13{1} [1 2 3 4 5 6 7 8 9 10 11 12 14 15 16]{3} [1 2 3 4 5 6 7 8 9 10 11 12 14 15 16] [1 2 3 4 5 6 7 8 9 10 11 12 14 15 16]{6} 13{1}  [1 2 3 4 5 6 7 8 9 10 11 12 14 15 16]*) | ([1 2 3 4 5 6 7 8 9 10 11 12 14 15 16]* 13{3}  [1 2 3 4 5 6 7 8 9 10 11 12 14 15 16]*) | ([1 2 3 4 5 6 7 8 9 10 11 12 14 15 16]* 13{1} [1 2 3 4 5 6 7 8 9 10 11 12 14 15 16]{6} [1 2 3 4 5 6 7 8 9 10 11 12 14 15 16] [1 2 3 4 5 6 7 8 9 10 11 12 14 15 16]{3} 13{1} [1 2 3 4 5 6 7 8 9 10 11 12 14 15 16]{6} [1 2 3 4 5 6 7 8 9 10 11 12 14 15 16] [1 2 3 4 5 6 7 8 9 10 11 12 14 15 16]{3} 13{1}  [1 2 3 4 5 6 7 8 9 10 11 12 14 15 16]*) )",
    "( ([1 2 3 4 5 6 7 8 9 10 11 12 13 15 16]* 14{1} [1 2 3 4 5 6 7 8 9 10 11 12 13 15 16]{6} [1 2 3 4 5 6 7 8 9 10 11 12 13 15 16] [1 2 3 4 5 6 7 8 9 10 11 12 13 15 16]{3} 14{1}  [1 2 3 4 5 6 7 8 9 10 11 12 13 15 16]*) | ([1 2 3 4 5 6 7 8 9 10 11 12 13 15 16]* 14{2}  [1 2 3 4 5 6 7 8 9 10 11 12 13 15 16]*) | ([1 2 3 4 5 6 7 8 9 10 11 12 13 15 16]* 14{1} [1 2 3 4 5 6 7 8 9 10 11 12 13 15 16]{3} [1 2 3 4 5 6 7 8 9 10 11 12 13 15 16] [1 2 3 4 5 6 7 8 9 10 11 12 13 15 16]{6} 14{1}  [1 2 3 4 5 6 7 8 9 10 11 12 13 15 16]*) | ([1 2 3 4 5 6 7 8 9 10 11 12 13 15 16]* 14{2}  [1 2 3 4 5 6 7 8 9 10 11 12 13 15 16]*) | ([1 2 3 4 5 6 7 8 9 10 11 12 13 15 16]* 14{1} [1 2 3 4 5 6 7 8 9 10 11 12 13 15 16]{3} [1 2 3 4 5 6 7 8 9 10 11 12 13 15 16] [1 2 3 4 5 6 7 8 9 10 11 12 13 15 16]{6} 14{1}  [1 2 3 4 5 6 7 8 9 10 11 12 13 15 16]*) | ([1 2 3 4 5 6 7 8 9 10 11 12 13 15 16]* 14{2}  [1 2 3 4 5 6 7 8 9 10 11 12 13 15 16]*) | ([1 2 3 4 5 6 7 8 9 10 11 12 13 15 16]* 14{1} [1 2 3 4 5 6 7 8 9 10 11 12 13 15 16]{6} [1 2 3 4 5 6 7 8 9 10 11 12 13 15 16] [1 2 3 4 5 6 7 8 9 10 11 12 13 15 16]{3} 14{1}  [1 2 3 4 5 6 7 8 9 10 11 12 13 15 16]*) | ([1 2 3 4 5 6 7 8 9 10 11 12 13 15 16]* 14{2}  [1 2 3 4 5 6 7 8 9 10 11 12 13 15 16]*) )",
    "( ([1 2 3 4 5 6 7 8 9 10 11 12 13 14 16]* 15{1} [1 2 3 4 5 6 7 8 9 10 11 12 13 14 16]{1} [1 2 3 4 5 6 7 8 9 10 11 12 13 14 16] [1 2 3 4 5 6 7 8 9 10 11 12 13 14 16]{6} 15{3}  [1 2 3 4 5 6 7 8 9 10 11 12 13 14 16]*) | ([1 2 3 4 5 6 7 8 9 10 11 12 13 14 16]* 15{1} [1 2 3 4 5 6 7 8 9 10 11 12 13 14 16]{8} [1 2 3 4 5 6 7 8 9 10 11 12 13 14 16] [1 2 3 4 5 6 7 8 9 10 11 12 13 14 16]{1} 15{1} [1 2 3 4 5 6 7 8 9 10 11 12 13 14 16]{8} [1 2 3 4 5 6 7 8 9 10 11 12 13 14 16] [1 2 3 4 5 6 7 8 9 10 11 12 13 14 16]{1} 15{2}  [1 2 3 4 5 6 7 8 9 10 11 12 13 14 16]*) | ([1 2 3 4 5 6 7 8 9 10 11 12 13 14 16]* 15{3} [1 2 3 4 5 6 7 8 9 10 11 12 13 14 16]{6} [1 2 3 4 5 6 7 8 9 10 11 12 13 14 16] [1 2 3 4 5 6 7 8 9 10 11 12 13 14 16]{1} 15{1}  [1 2 3 4 5 6 7 8 9 10 11 12 13 14 16]*) | ([1 2 3 4 5 6 7 8 9 10 11 12 13 14 16]* 15{2} [1 2 3 4 5 6 7 8 9 10 11 12 13 14 16]{1} [1 2 3 4 5 6 7 8 9 10 11 12 13 14 16] [1 2 3 4 5 6 7 8 9 10 11 12 13 14 16]{8} 15{1} [1 2 3 4 5 6 7 8 9 10 11 12 13 14 16]{1} [1 2 3 4 5 6 7 8 9 10 11 12 13 14 16] [1 2 3 4 5 6 7 8 9 10 11 12 13 14 16]{8} 15{1}  [1 2 3 4 5 6 7 8 9 10 11 12 13 14 16]*) | ([1 2 3 4 5 6 7 8 9 10 11 12 13 14 16]* 15{1} [1 2 3 4 5 6 7 8 9 10 11 12 13 14 16]{8} [1 2 3 4 5 6 7 8 9 10 11 12 13 14 16] [1 2 3 4 5 6 7 8 9 10 11 12 13 14 16]{1} 15{3}  [1 2 3 4 5 6 7 8 9 10 11 12 13 14 16]*) | ([1 2 3 4 5 6 7 8 9 10 11 12 13 14 16]* 15{1} [1 2 3 4 5 6 7 8 9 10 11 12 13 14 16]{1} [1 2 3 4 5 6 7 8 9 10 11 12 13 14 16] [1 2 3 4 5 6 7 8 9 10 11 12 13 14 16]{8} 15{1} [1 2 3 4 5 6 7 8 9 10 11 12 13 14 16]{1} [1 2 3 4 5 6 7 8 9 10 11 12 13 14 16] [1 2 3 4 5 6 7 8 9 10 11 12 13 14 16]{7} 15{2}  [1 2 3 4 5 6 7 8 9 10 11 12 13 14 16]*) | ([1 2 3 4 5 6 7 8 9 10 11 12 13 14 16]* 15{3} [1 2 3 4 5 6 7 8 9 10 11 12 13 14 16]{1} [1 2 3 4 5 6 7 8 9 10 11 12 13 14 16] [1 2 3 4 5 6 7 8 9 10 11 12 13 14 16]{8} 15{1}  [1 2 3 4 5 6 7 8 9 10 11 12 13 14 16]*) | ([1 2 3 4 5 6 7 8 9 10 11 12 13 14 16]* 15{2} [1 2 3 4 5 6 7 8 9 10 11 12 13 14 16]{7} [1 2 3 4 5 6 7 8 9 10 11 12 13 14 16] [1 2 3 4 5 6 7 8 9 10 11 12 13 14 16]{1} 15{1} [1 2 3 4 5 6 7 8 9 10 11 12 13 14 16]{8} [1 2 3 4 5 6 7 8 9 10 11 12 13 14 16] [1 2 3 4 5 6 7 8 9 10 11 12 13 14 16]{1} 15{1}  [1 2 3 4 5 6 7 8 9 10 11 12 13 14 16]*) )",
];
